nNurses = 147;
nHours = 32;
minHours = 3;
maxHours = 19;
maxConsec = 6;
maxPresence = 24;
demand = [32, 37, 36, 36, 32, 27, 30, 25, 26, 28, 32, 35, 33, 33, 33, 38, 40, 35, 36, 34, 36, 38, 33, 38, 34, 31, 26, 28, 30, 26, 21, 24];
